400, 38159
256, 256
225, 225
192, 192
55, 55
118, 118
23, 23
354, 354
16, 16
145, 145
55, 55
236, 236
256, 256
395, 395
273, 273
326, 326
146, 146
88, 88
311, 311
294, 294
15, 15
4, 4
157, 157
9, 9
12, 12
267, 267
73, 73
395, 395
115, 115
372, 372
90, 90
248, 248
271, 271
347, 347
86, 86
207, 207
368, 368
266, 266
171, 171
272, 272
367, 367
355, 355
311, 311
210, 210
204, 204
28, 28
2, 2
131, 131
339, 339
200, 200
73, 73
253, 253
172, 172
142, 142
310, 310
385, 385
34, 34
264, 264
186, 186
83, 83
283, 283
362, 362
317, 317
194, 194
230, 230
109, 109
13, 13
354, 354
84, 84
231, 231
146, 146
136, 136
44, 44
73, 73
178, 178
161, 161
210, 210
165, 165
64, 64
144, 144
18, 18
73, 73
126, 126
194, 194
278, 278
204, 204
244, 244
319, 319
24, 24
180, 180
9, 9
367, 367
33, 33
210, 210
286, 286
310, 310
351, 351
155, 155
106, 106
46, 46
181, 181
275, 275
80, 80
95, 95
348, 348
392, 392
333, 333
302, 302
247, 247
9, 9
109, 109
287, 287
229, 229
129, 129
397, 397
152, 152
352, 352
163, 163
219, 219
340, 340
34, 34
67, 67
169, 169
33, 33
247, 247
271, 271
145, 145
279, 279
77, 77
25, 25
130, 130
245, 245
56, 56
306, 306
329, 329
153, 153
114, 114
20, 20
43, 43
43, 43
207, 207
315, 315
190, 190
342, 342
111, 111
178, 178
392, 392
165, 165
333, 333
342, 342
63, 63
214, 214
292, 292
41, 41
367, 367
302, 302
322, 322
133, 133
58, 58
249, 249
196, 196
154, 154
89, 89
363, 363
64, 64
134, 134
161, 161
168, 168
130, 130
400, 400
257, 257
381, 381
94, 94
161, 161
40, 40
73, 73
292, 292
352, 352
131, 131
123, 123
226, 226
137, 137
372, 372
313, 313
35, 35
25, 25
94, 94
10, 10
53, 53
328, 328
156, 156
353, 353
184, 184
3, 3
290, 290
86, 86
355, 355
53, 53
28, 28
67, 67
304, 304
369, 369
66, 66
56, 56
328, 328
335, 335
301, 301
203, 203
153, 153
192, 192
275, 275
239, 239
51, 51
144, 144
206, 206
128, 128
290, 290
232, 232
235, 235
25, 25
214, 214
124, 124
285, 285
50, 50
142, 142
183, 183
66, 66
393, 393
3, 3
337, 337
350, 350
299, 299
129, 129
139, 139
179, 179
287, 287
336, 336
311, 311
210, 210
16, 16
33, 33
214, 214
11, 11
229, 229
195, 195
351, 351
113, 113
335, 335
70, 70
361, 361
105, 105
94, 94
231, 231
374, 374
32, 32
192, 192
233, 233
44, 44
156, 156
280, 280
293, 293
16, 16
27, 27
182, 182
72, 72
385, 385
344, 344
104, 104
27, 27
302, 302
124, 124
29, 29
16, 16
278, 278
336, 336
274, 274
8, 8
283, 283
97, 97
107, 107
193, 193
225, 225
364, 364
95, 95
141, 141
280, 280
313, 313
144, 144
174, 174
307, 307
229, 229
166, 166
13, 13
117, 117
311, 311
232, 232
281, 281
8, 8
212, 212
358, 358
349, 349
185, 185
109, 109
117, 117
59, 59
99, 99
166, 166
232, 232
20, 20
262, 262
338, 338
231, 231
217, 217
196, 196
234, 234
63, 63
219, 219
232, 232
172, 172
246, 246
399, 399
179, 179
288, 288
8, 8
126, 126
228, 228
262, 262
259, 259
185, 185
179, 179
11, 11
364, 364
169, 169
299, 299
171, 171
125, 125
388, 388
2, 2
208, 208
11, 11
12, 12
70, 70
296, 296
151, 151
289, 289
37, 37
389, 389
209, 209
119, 119
201, 201
93, 93
244, 244
258, 258
286, 286
82, 82
147, 147
126, 126
33, 33
108, 108
142, 142
219, 219
248, 248
258, 258
80, 80
53, 53
136, 136
200, 200
168, 168
209, 209
358, 358
98, 98
241, 241
212, 212
222, 222
343, 343
240, 240
254, 254
89, 89
289, 289
235, 235
131, 131
95, 95
192, 192
17, 17
378, 378
41, 41
350, 350
201, 201
143, 143
321, 321
397, 397
234, 234
259, 259
392, 392
221, 221
276, 276
147, 147
100, 100
10, 10
282, 282
214, 214
